p cnf 20 15
18 9 -17 -1 -19 5 -4 -14 20 -7 0
-20 5 -4 -10 -6 8 9 -12 13 -14 0
9 15 -18 -7 8 16 -5 14 3 2 0
-17 -8 2 1 13 20 16 -18 12 -7 0
18 13 9 -4 17 10 6 11 19 -8 0
-11 12 5 -9 -8 -14 20 7 1 19 0
-14 -19 -8 12 -15 -13 11 -4 3 2 0
9 -19 -17 -11 -13 -20 -15 3 10 6 0
6 19 3 9 15 -17 -7 -16 4 -12 0
18 -15 -10 7 1 -3 5 -6 -17 14 0
14 7 -5 1 13 -18 -6 8 -3 11 0
-20 3 10 7 16 -2 -17 -8 19 14 0
3 -20 -6 -4 16 -7 19 -17 -1 5 0
-20 -15 8 11 3 14 9 17 5 -13 0
20 -18 11 -19 1 -10 -2 12 -8 17 0
